602,-97
548,338
326,462
334,583
733,478
923,230
1020,745
998,-30
980,-6
888,438
787,352
707,393
935,660
560,318
681,556
633,371
1045,670
539,360
269,705
617,207
1162,161
532,112
858,378
826,511
385,702
672,434
1051,286
617,605
